\ENCODING=ISO-8859-1
\Problem name: IloCplex

Minimize
 obj: 124 y(0) + 91 y(1) + 62 y(2) + 127 y(3) + 107 y(4) + 47 y(5) + 104 y(6)
      + 113 y(7) + 65 y(8) + 106 y(9) + 113 y(10) + 68 y(11) + 131 y(12)
      + 126 y(13) + 24 y(14) + 124 y(15) + 126 y(16) + 47 y(17) + 105 y(18)
      + 126 y(19) + 65 y(20) + 91 y(21) + 150 y(22) + 49 y(23) + 107 y(24)
      + 131 y(25) + 53 y(26) + 113 y(27) + 124 y(28)
Subject To
 c1:  y(1) + y(2) + y(14)  = 1
 c2:  y(1) + y(2) + y(14)  = 1
 c3:  y(1) + y(2) + y(14)  = 1
 c4:  y(15)  = 1
 c5:  y(15)  = 1
 c6:  y(15)  = 1
 c7:  y(2) + y(16)  = 1
 c8:  y(2) + y(16)  = 1
 c9:  y(2) + y(16)  = 1
 c10: y(9) + y(17)  = 1
 c11: y(9) + y(17)  = 1
 c12: y(9) + y(17)  = 1
 c13: y(7) + y(8) + y(18)  = 1
 c14: y(7) + y(8) + y(18)  = 1
 c15: y(7) + y(8) + y(18)  = 1
 c16: y(12) + y(13) + y(19)  = 1
 c17: y(12) + y(13) + y(19)  = 1
 c18: y(12) + y(13) + y(19)  = 1
 c19: y(0) + y(13) + y(20)  = 1
 c20: y(0) + y(13) + y(20)  = 1
 c21: y(0) + y(13) + y(20)  = 1
 c22: y(0) + y(1) + y(21)  = 1
 c23: y(0) + y(1) + y(21)  = 1
 c24: y(0) + y(1) + y(21)  = 1
 c25: y(4) + y(5) + y(22)  = 1
 c26: y(4) + y(5) + y(22)  = 1
 c27: y(4) + y(5) + y(22)  = 1
 c28: y(5) + y(23)  = 1
 c29: y(5) + y(23)  = 1
 c30: y(5) + y(23)  = 1
 c31: y(3) + y(4) + y(5) + y(24)  = 1
 c32: y(3) + y(4) + y(5) + y(24)  = 1
 c33: y(3) + y(4) + y(5) + y(24)  = 1
 c34: y(8) + y(9) + y(25)  = 1
 c35: y(8) + y(9) + y(25)  = 1
 c36: y(8) + y(9) + y(25)  = 1
 c37: y(10) + y(26)  = 1
 c38: y(10) + y(26)  = 1
 c39: y(10) + y(26)  = 1
 c40: y(11) + y(12) + y(13) + y(27)  = 1
 c41: y(11) + y(12) + y(13) + y(27)  = 1
 c42: y(11) + y(12) + y(13) + y(27)  = 1
 c43: y(6) + y(7) + y(28)  = 1
 c44: y(6) + y(7) + y(28)  = 1
 c45: y(6) + y(7) + y(28)  = 1
 c46: y(0) + y(1) + y(2) + y(3) + y(4) + y(5) + y(6) + y(7) + y(8) + y(9)
      + y(10) + y(11) + y(12) + y(13) + y(14) + y(15) + y(16) + y(17) + y(18)
      + y(19) + y(20) + y(21) + y(22) + y(23) + y(24) + y(25) + y(26) + y(27)
      + y(28) >= 2
 c47: y(0) + y(1) + y(2) + y(3) + y(4) + y(5) + y(6) + y(7) + y(8) + y(9)
      + y(10) + y(11) + y(12) + y(13) + y(14) + y(15) + y(16) + y(17) + y(18)
      + y(19) + y(20) + y(21) + y(22) + y(23) + y(24) + y(25) + y(26) + y(27)
      + y(28) <= 15
Bounds
 0 <= y(0) <= 1
 0 <= y(1) <= 1
 0 <= y(2) <= 1
 0 <= y(3) <= 1
 0 <= y(4) <= 1
 0 <= y(5) <= 1
 0 <= y(6) <= 1
 0 <= y(7) <= 1
 0 <= y(8) <= 1
 0 <= y(9) <= 1
 0 <= y(10) <= 1
 0 <= y(11) <= 1
 0 <= y(12) <= 1
 0 <= y(13) <= 1
 0 <= y(14) <= 1
 0 <= y(15) <= 1
 0 <= y(16) <= 1
 0 <= y(17) <= 1
 0 <= y(18) <= 1
 0 <= y(19) <= 1
 0 <= y(20) <= 1
 0 <= y(21) <= 1
 0 <= y(22) <= 1
 0 <= y(23) <= 1
 0 <= y(24) <= 1
 0 <= y(25) <= 1
 0 <= y(26) <= 1
 0 <= y(27) <= 1
 0 <= y(28) <= 1
Binaries
 y(0)  y(1)  y(2)  y(3)  y(4)  y(5)  y(6)  y(7)  y(8)  y(9)  y(10)  y(11) 
 y(12)  y(13)  y(14)  y(15)  y(16)  y(17)  y(18)  y(19)  y(20)  y(21)  y(22) 
 y(23)  y(24)  y(25)  y(26)  y(27)  y(28) 
End
